NAME: map4_480
TYPE: TSP
COMMENT: autogenerated using a wonderful map creator
DIMENSION: 600
EDGE_WEIGHT_TYPE: EUC_2D
NODE_COORD_SECTION
1 1.0 5.0
2 1.0 4.0
3 4.0 5.0
4 4.0 4.0
5 7.0 5.0
6 7.0 4.0
7 10.0 5.0
8 10.0 4.0
9 13.0 5.0
10 13.0 4.0
11 16.0 5.0
12 16.0 4.0
13 19.0 5.0
14 19.0 4.0
15 22.0 5.0
16 22.0 4.0
17 25.0 5.0
18 25.0 4.0
19 28.0 5.0
20 28.0 4.0
21 31.0 5.0
22 31.0 4.0
23 34.0 5.0
24 34.0 4.0
25 37.0 5.0
26 37.0 4.0
27 40.0 5.0
28 40.0 4.0
29 43.0 5.0
30 43.0 4.0
31 1.0 95.0
32 1.0 96.0
33 4.0 95.0
34 4.0 96.0
35 7.0 95.0
36 7.0 96.0
37 10.0 95.0
38 10.0 96.0
39 13.0 95.0
40 13.0 96.0
41 16.0 95.0
42 16.0 96.0
43 19.0 95.0
44 19.0 96.0
45 22.0 95.0
46 22.0 96.0
47 25.0 95.0
48 25.0 96.0
49 28.0 95.0
50 28.0 96.0
51 31.0 95.0
52 31.0 96.0
53 34.0 95.0
54 34.0 96.0
55 37.0 95.0
56 37.0 96.0
57 40.0 95.0
58 40.0 96.0
59 43.0 95.0
60 43.0 96.0
61 1.0 3.0
62 4.0 97.0
63 7.0 3.0
64 10.0 97.0
65 13.0 3.0
66 16.0 97.0
67 19.0 3.0
68 22.0 97.0
69 25.0 3.0
70 28.0 97.0
71 31.0 3.0
72 34.0 97.0
73 37.0 3.0
74 40.0 97.0
75 43.0 3.0
76 1.0 2.0
77 4.0 98.0
78 7.0 2.0
79 10.0 98.0
80 13.0 2.0
81 16.0 98.0
82 19.0 2.0
83 22.0 98.0
84 25.0 2.0
85 28.0 98.0
86 31.0 2.0
87 34.0 98.0
88 37.0 2.0
89 40.0 98.0
90 43.0 2.0
91 1.0 97.0
92 4.0 3.0
93 7.0 97.0
94 10.0 3.0
95 13.0 97.0
96 16.0 3.0
97 19.0 97.0
98 22.0 3.0
99 25.0 97.0
100 28.0 3.0
101 31.0 97.0
102 34.0 3.0
103 37.0 97.0
104 40.0 3.0
105 43.0 97.0
106 1.0 98.0
107 4.0 2.0
108 7.0 98.0
109 10.0 2.0
110 13.0 98.0
111 16.0 2.0
112 19.0 98.0
113 22.0 2.0
114 25.0 98.0
115 28.0 2.0
116 31.0 98.0
117 34.0 2.0
118 37.0 98.0
119 40.0 2.0
120 43.0 98.0
121 2.0 95.0
122 2.0 96.0
123 5.0 95.0
124 5.0 96.0
125 8.0 95.0
126 8.0 96.0
127 11.0 95.0
128 11.0 96.0
129 14.0 95.0
130 14.0 96.0
131 17.0 95.0
132 17.0 96.0
133 20.0 95.0
134 20.0 96.0
135 23.0 95.0
136 23.0 96.0
137 26.0 95.0
138 26.0 96.0
139 29.0 95.0
140 29.0 96.0
141 32.0 95.0
142 32.0 96.0
143 35.0 95.0
144 35.0 96.0
145 38.0 95.0
146 38.0 96.0
147 41.0 95.0
148 41.0 96.0
149 44.0 95.0
150 44.0 96.0
151 2.0 5.0
152 2.0 4.0
153 5.0 5.0
154 5.0 4.0
155 8.0 5.0
156 8.0 4.0
157 11.0 5.0
158 11.0 4.0
159 14.0 5.0
160 14.0 4.0
161 17.0 5.0
162 17.0 4.0
163 20.0 5.0
164 20.0 4.0
165 23.0 5.0
166 23.0 4.0
167 26.0 5.0
168 26.0 4.0
169 29.0 5.0
170 29.0 4.0
171 32.0 5.0
172 32.0 4.0
173 35.0 5.0
174 35.0 4.0
175 38.0 5.0
176 38.0 4.0
177 41.0 5.0
178 41.0 4.0
179 44.0 5.0
180 44.0 4.0
181 2.0 97.0
182 5.0 3.0
183 8.0 97.0
184 11.0 3.0
185 14.0 97.0
186 17.0 3.0
187 20.0 97.0
188 23.0 3.0
189 26.0 97.0
190 29.0 3.0
191 32.0 97.0
192 35.0 3.0
193 38.0 97.0
194 41.0 3.0
195 44.0 97.0
196 2.0 98.0
197 5.0 2.0
198 8.0 98.0
199 11.0 2.0
200 14.0 98.0
201 17.0 2.0
202 20.0 98.0
203 23.0 2.0
204 26.0 98.0
205 29.0 2.0
206 32.0 98.0
207 35.0 2.0
208 38.0 98.0
209 41.0 2.0
210 44.0 98.0
211 2.0 3.0
212 5.0 97.0
213 8.0 3.0
214 11.0 97.0
215 14.0 3.0
216 17.0 97.0
217 20.0 3.0
218 23.0 97.0
219 26.0 3.0
220 29.0 97.0
221 32.0 3.0
222 35.0 97.0
223 38.0 3.0
224 41.0 97.0
225 44.0 3.0
226 2.0 2.0
227 5.0 98.0
228 8.0 2.0
229 11.0 98.0
230 14.0 2.0
231 17.0 98.0
232 20.0 2.0
233 23.0 98.0
234 26.0 2.0
235 29.0 98.0
236 32.0 2.0
237 35.0 98.0
238 38.0 2.0
239 41.0 98.0
240 44.0 2.0
241 13.0 88.0
242 7.0 17.0
243 26.0 39.0
244 28.0 58.0
245 28.0 76.0
246 40.0 41.0
247 28.0 85.0
248 40.0 77.0
249 10.0 36.0
250 10.0 45.0
251 22.0 10.0
252 10.0 54.0
253 34.0 21.0
254 2.0 50.0
255 31.0 86.0
256 37.0 35.0
257 43.0 78.0
258 13.0 74.0
259 13.0 83.0
260 1.0 81.0
261 7.0 12.0
262 1.0 90.0
263 16.0 88.0
264 7.0 30.0
265 28.0 71.0
266 28.0 89.0
267 41.0 28.0
268 25.0 38.0
269 31.0 72.0
270 22.0 14.0
271 34.0 16.0
272 22.0 23.0
273 37.0 21.0
274 37.0 30.0
275 4.0 82.0
276 13.0 60.0
277 16.0 56.0
278 1.0 85.0
279 7.0 16.0
280 16.0 83.0
281 28.0 48.0
282 36.0 61.0
283 28.0 57.0
284 28.0 66.0
285 40.0 31.0
286 28.0 75.0
287 10.0 35.0
288 25.0 33.0
289 25.0 42.0
290 12.0 72.0
291 4.0 68.0
292 37.0 16.0
293 13.0 46.0
294 1.0 62.0
295 43.0 77.0
296 40.0 8.0
297 16.0 87.0
298 28.0 52.0
299 17.0 61.0
300 40.0 35.0
301 40.0 44.0
302 10.0 12.0
303 19.0 79.0
304 10.0 21.0
305 31.0 53.0
306 25.0 19.0
307 31.0 62.0
308 4.0 72.0
309 16.0 37.0
310 43.0 54.0
311 35.0 50.0
312 4.0 81.0
313 1.0 57.0
314 34.0 91.0
315 28.0 20.0
316 28.0 38.0
317 40.0 12.0
318 19.0 65.0
319 19.0 74.0
320 20.0 39.0
321 10.0 16.0
322 30.0 83.0
323 31.0 48.0
324 19.0 83.0
325 25.0 14.0
326 10.0 25.0
327 31.0 57.0
328 31.0 66.0
329 1.0 34.0
330 31.0 84.0
331 13.0 36.0
332 16.0 32.0
333 1.0 43.0
334 43.0 58.0
335 16.0 41.0
336 1.0 52.0
337 34.0 86.0
338 28.0 15.0
339 13.0 63.0
340 37.0 82.0
341 16.0 50.0
342 16.0 59.0
343 37.0 91.0
344 16.0 68.0
345 28.0 33.0
346 7.0 77.0
347 19.0 60.0
348 23.0 39.0
349 32.0 17.0
350 13.0 13.0
351 20.0 61.0
352 31.0 70.0
353 43.0 35.0
354 13.0 31.0
355 4.0 62.0
356 16.0 27.0
357 13.0 40.0
358 16.0 36.0
359 13.0 49.0
360 34.0 81.0
361 16.0 54.0
362 22.0 88.0
363 34.0 90.0
364 37.0 86.0
365 40.0 11.0
366 27.0 50.0
367 31.0 29.0
368 31.0 47.0
369 4.0 30.0
370 43.0 12.0
371 4.0 39.0
372 43.0 21.0
373 43.0 30.0
374 16.0 13.0
375 12.0 61.0
376 1.0 24.0
377 34.0 58.0
378 34.0 67.0
379 13.0 44.0
380 37.0 63.0
381 22.0 83.0
382 28.0 23.0
383 37.0 90.0
384 7.0 67.0
385 27.0 72.0
386 4.0 34.0
387 41.0 83.0
388 25.0 75.0
389 13.0 21.0
390 1.0 28.0
391 4.0 61.0
392 34.0 62.0
393 37.0 58.0
394 34.0 71.0
395 22.0 69.0
396 16.0 35.0
397 28.0 9.0
398 37.0 85.0
399 7.0 71.0
400 7.0 80.0
401 19.0 54.0
402 31.0 19.0
403 40.0 86.0
404 19.0 63.0
405 25.0 70.0
406 33.0 83.0
407 16.0 12.0
408 25.0 79.0
409 37.0 44.0
410 22.0 55.0
411 37.0 53.0
412 16.0 30.0
413 37.0 62.0
414 34.0 75.0
415 22.0 73.0
416 37.0 71.0
417 22.0 91.0
418 7.0 48.0
419 19.0 13.0
420 15.0 61.0
421 19.0 22.0
422 7.0 66.0
423 29.0 72.0
424 19.0 49.0
425 40.0 81.0
426 40.0 90.0
427 31.0 32.0
428 12.0 28.0
429 1.0 9.0
430 22.0 41.0
431 25.0 74.0
432 22.0 50.0
433 34.0 52.0
434 37.0 57.0
435 7.0 34.0
436 19.0 17.0
437 30.0 17.0
438 40.0 67.0
439 19.0 44.0
440 31.0 9.0
441 40.0 76.0
442 6.0 83.0
443 40.0 85.0
444 41.0 50.0
445 34.0 20.0
446 4.0 28.0
447 25.0 60.0
448 10.0 71.0
449 34.0 38.0
450 25.0 69.0
451 34.0 47.0
452 25.0 78.0
453 34.0 56.0
454 14.0 50.0
455 7.0 47.0
456 19.0 12.0
457 28.0 79.0
458 7.0 56.0
459 19.0 21.0
460 28.0 88.0
461 40.0 53.0
462 19.0 30.0
463 33.0 50.0
464 34.0 24.0
465 25.0 64.0
466 34.0 42.0
467 37.0 47.0
468 22.0 58.0
469 13.0 77.0
470 37.0 56.0
471 13.0 86.0
472 7.0 15.0
473 15.0 28.0
474 16.0 82.0
475 7.0 33.0
476 28.0 74.0
477 17.0 83.0
478 40.0 48.0
479 28.0 83.0
480 25.0 23.0
481 34.0 10.0
482 10.0 52.0
483 37.0 15.0
484 34.0 28.0
485 37.0 24.0
486 10.0 70.0
487 37.0 33.0
488 43.0 67.0
489 22.0 44.0
490 1.0 79.0
491 7.0 19.0
492 16.0 86.0
493 28.0 51.0
494 18.0 28.0
495 28.0 60.0
496 7.0 37.0
497 28.0 69.0
498 19.0 11.0
499 21.0 39.0
500 28.0 87.0
501 40.0 61.0
502 22.0 12.0
503 10.0 56.0
504 34.0 23.0
505 22.0 21.0
506 4.0 89.0
507 16.0 63.0
508 1.0 74.0
509 13.0 76.0
510 43.0 89.0
511 16.0 72.0
512 1.0 83.0
513 40.0 38.0
514 40.0 47.0
515 33.0 17.0
516 21.0 61.0
517 10.0 24.0
518 25.0 22.0
519 43.0 48.0
520 31.0 92.0
521 13.0 62.0
522 43.0 75.0
523 16.0 58.0
524 13.0 71.0
525 43.0 84.0
526 28.0 32.0
527 13.0 80.0
528 28.0 41.0
529 13.0 89.0
530 28.0 59.0
531 28.0 68.0
532 40.0 42.0
533 40.0 51.0
534 10.0 10.0
535 19.0 77.0
536 25.0 8.0
537 10.0 28.0
538 31.0 60.0
539 25.0 26.0
540 10.0 37.0
541 37.0 9.0
542 22.0 20.0
543 43.0 52.0
544 1.0 64.0
545 43.0 79.0
546 1.0 73.0
547 13.0 75.0
548 28.0 36.0
549 6.0 17.0
550 40.0 19.0
551 28.0 63.0
552 40.0 28.0
553 29.0 28.0
554 39.0 50.0
555 19.0 81.0
556 31.0 46.0
557 19.0 90.0
558 43.0 29.0
559 31.0 82.0
560 43.0 47.0
561 4.0 65.0
562 4.0 74.0
563 13.0 61.0
564 1.0 59.0
565 16.0 66.0
566 16.0 75.0
567 38.0 72.0
568 28.0 49.0
569 6.0 39.0
570 19.0 76.0
571 10.0 18.0
572 43.0 15.0
573 4.0 42.0
574 43.0 24.0
575 39.0 72.0
576 31.0 68.0
577 13.0 29.0
578 31.0 77.0
579 16.0 34.0
580 28.0 8.0
581 34.0 88.0
582 1.0 63.0
583 37.0 84.0
584 16.0 61.0
585 36.0 39.0
586 7.0 70.0
587 40.0 18.0
588 26.0 83.0
589 7.0 79.0
590 7.0 88.0
591 19.0 62.0
592 31.0 27.0
593 10.0 13.0
594 19.0 80.0
595 31.0 45.0
596 31.0 54.0
597 4.0 37.0
598 13.0 15.0
599 43.0 28.0
600 4.0 55.0
601 4.0 64.0
602 16.0 29.0
603 34.0 65.0
604 4.0 73.0
605 1.0 49.0
606 37.0 70.0
607 37.0 79.0
608 28.0 21.0
609 28.0 30.0
610 5.0 28.0
611 7.0 65.0
612 40.0 13.0
613 8.0 39.0
614 18.0 83.0
615 27.0 61.0
616 7.0 92.0
617 19.0 57.0
618 31.0 58.0
619 4.0 41.0
620 13.0 19.0
621 4.0 50.0
622 43.0 32.0
623 35.0 28.0
624 1.0 26.0
625 4.0 59.0
626 16.0 24.0
627 34.0 60.0
628 13.0 28.0
629 22.0 67.0
630 16.0 33.0
631 34.0 69.0
632 16.0 42.0
633 3.0 72.0
634 14.0 72.0
635 28.0 16.0
636 37.0 83.0
637 7.0 51.0
638 7.0 69.0
639 19.0 34.0
640 20.0 17.0
641 30.0 61.0
642 39.0 39.0
643 4.0 27.0
644 4.0 36.0
645 25.0 68.0
646 43.0 27.0
647 16.0 10.0
648 25.0 77.0
649 10.0 88.0
650 1.0 39.0
651 37.0 60.0
652 28.0 11.0
653 26.0 50.0
654 15.0 50.0
655 7.0 64.0
656 40.0 79.0
657 19.0 56.0
658 12.0 17.0
659 23.0 17.0
660 31.0 39.0
661 4.0 22.0
662 10.0 65.0
663 25.0 63.0
664 4.0 40.0
665 22.0 48.0
666 10.0 92.0
667 16.0 23.0
668 22.0 57.0
669 25.0 90.0
670 22.0 66.0
671 22.0 75.0
672 7.0 41.0
673 18.0 50.0
674 28.0 91.0
675 19.0 42.0
676 31.0 25.0
677 25.0 49.0
678 25.0 58.0
679 10.0 69.0
680 34.0 36.0
681 1.0 11.0
682 10.0 78.0
683 16.0 9.0
684 1.0 20.0
685 14.0 39.0
686 34.0 54.0
687 22.0 52.0
688 34.0 63.0
689 7.0 18.0
690 7.0 27.0
691 7.0 45.0
692 7.0 54.0
693 19.0 28.0
694 40.0 60.0
695 19.0 37.0
696 40.0 69.0
697 40.0 78.0
698 31.0 20.0
699 40.0 87.0
700 4.0 12.0
701 34.0 13.0
702 25.0 44.0
703 4.0 21.0
704 22.0 29.0
705 34.0 40.0
706 25.0 71.0
707 37.0 36.0
708 22.0 56.0
709 14.0 61.0
710 19.0 14.0
711 40.0 46.0
712 40.0 55.0
713 4.0 16.0
714 10.0 50.0
715 34.0 17.0
716 10.0 68.0
717 34.0 44.0
718 22.0 42.0
719 13.0 70.0
720 37.0 49.0
START_DEPOT_SECTION
1
2
3
4
5
6
7
8
9
10
11
12
13
14
15
16
17
18
19
20
21
22
23
24
25
26
27
28
29
30
31
32
33
34
35
36
37
38
39
40
41
42
43
44
45
46
47
48
49
50
51
52
53
54
55
56
57
58
59
60
61
62
63
64
65
66
67
68
69
70
71
72
73
74
75
76
77
78
79
80
81
82
83
84
85
86
87
88
89
90
91
92
93
94
95
96
97
98
99
100
101
102
103
104
105
106
107
108
109
110
111
112
113
114
115
116
117
118
119
120
-1
END_DEPOT_SECTION
121
122
123
124
125
126
127
128
129
130
131
132
133
134
135
136
137
138
139
140
141
142
143
144
145
146
147
148
149
150
151
152
153
154
155
156
157
158
159
160
161
162
163
164
165
166
167
168
169
170
171
172
173
174
175
176
177
178
179
180
181
182
183
184
185
186
187
188
189
190
191
192
193
194
195
196
197
198
199
200
201
202
203
204
205
206
207
208
209
210
211
212
213
214
215
216
217
218
219
220
221
222
223
224
225
226
227
228
229
230
231
232
233
234
235
236
237
238
239
240
-1
EOF
